NAME : X-n270-k35
COMMENT : "Generated by Uchoa, Pecin, Pessoa, Poggi, Subramanian, and Vidal (2013)"
TYPE : CVRP
DIMENSION : 270
EDGE_WEIGHT_TYPE : EUC_2D
CAPACITY : 585
NODE_COORD_SECTION
1 500 500
2 643 512
3 707 407
4 394 355
5 140 470
6 364 215
7 493 857
8 117 466
9 462 38
10 551 479
11 742 498
12 533 706
13 788 425
14 799 6
15 836 680
16 88 225
17 164 988
18 537 20
19 612 395
20 314 942
21 342 974
22 518 758
23 860 774
24 313 36
25 275 23
26 324 971
27 822 588
28 272 458
29 620 666
30 868 427
31 694 750
32 953 419
33 236 823
34 887 411
35 124 814
36 193 899
37 687 303
38 447 220
39 716 472
40 415 141
41 738 309
42 445 672
43 524 60
44 112 157
45 859 935
46 104 596
47 556 54
48 362 223
49 723 661
50 474 338
51 274 568
52 315 380
53 704 863
54 936 260
55 93 859
56 703 935
57 381 302
58 695 239
59 880 823
60 335 961
61 37 637
62 288 169
63 455 499
64 599 796
65 155 910
66 80 459
67 93 565
68 959 544
69 926 58
70 762 531
71 22 839
72 459 575
73 737 409
74 854 328
75 921 781
76 221 23
77 685 179
78 202 804
79 422 992
80 945 292
81 66 976
82 487 429
83 614 711
84 407 546
85 883 298
86 709 692
87 535 319
88 965 217
89 336 35
90 703 595
91 677 841
92 51 503
93 334 968
94 628 154
95 488 437
96 680 869
97 987 264
98 474 906
99 866 911
100 940 542
101 106 988
102 558 398
103 661 206
104 500 17
105 710 588
106 23 696
107 181 909
108 107 556
109 516 409
110 345 879
111 684 742
112 86 682
113 447 182
114 825 545
115 880 72
116 840 689
117 129 532
118 89 305
119 434 407
120 348 132
121 390 473
122 598 286
123 464 891
124 671 336
125 762 909
126 136 633
127 40 814
128 445 889
129 980 135
130 318 2
131 688 101
132 387 142
133 480 339
134 85 69
135 884 826
136 789 719
137 907 96
138 207 24
139 557 694
140 22 2
141 740 695
142 897 75
143 844 196
144 93 50
145 731 708
146 699 899
147 45 32
148 768 584
149 153 53
150 671 669
151 818 715
152 933 659
153 500 706
154 914 139
155 891 85
156 73 147
157 794 769
158 862 849
159 504 643
160 524 644
161 49 36
162 539 728
163 139 118
164 931 588
165 850 28
166 891 612
167 760 762
168 709 636
169 628 448
170 277 45
171 588 720
172 803 710
173 712 63
174 804 68
175 80 33
176 886 131
177 536 318
178 899 161
179 189 17
180 140 62
181 548 667
182 838 835
183 890 749
184 998 675
185 862 272
186 551 695
187 692 757
188 735 752
189 468 626
190 535 665
191 734 66
192 853 159
193 936 93
194 941 63
195 717 545
196 929 175
197 719 743
198 224 25
199 773 717
200 709 712
201 467 579
202 550 683
203 264 122
204 749 182
205 234 56
206 868 936
207 833 93
208 762 774
209 555 593
210 790 705
211 59 94
212 576 674
213 494 607
214 412 701
215 614 627
216 883 597
217 233 64
218 598 659
219 813 611
220 916 105
221 868 603
222 555 673
223 782 724
224 93 100
225 743 870
226 600 452
227 619 753
228 892 181
229 850 547
230 600 727
231 63 175
232 789 598
233 6 83
234 116 27
235 753 615
236 896 100
237 7 9
238 754 745
239 777 760
240 88 32
241 803 64
242 901 109
243 36 8
244 835 42
245 591 543
246 576 872
247 530 707
248 187 153
249 627 789
250 21 62
251 787 650
252 194 350
253 857 704
254 487 672
255 511 732
256 872 794
257 99 77
258 864 58
259 143 149
260 910 236
261 963 91
262 133 56
263 747 666
264 712 736
265 771 725
266 302 59
267 935 107
268 766 680
269 680 683
270 648 800
PICKUP_AND_DELIVERY_SECTION
1 0 0 1000000000 0 0 0
2 0 0 1000000000 0 0 77
3 0 0 1000000000 0 0 91
4 0 0 1000000000 0 0 67
5 0 0 1000000000 0 0 69
6 0 0 1000000000 0 0 68
7 0 0 1000000000 0 0 64
8 0 0 1000000000 0 0 65
9 0 0 1000000000 0 0 83
10 0 0 1000000000 0 0 64
11 0 0 1000000000 0 77 0
12 0 0 1000000000 0 0 87
13 0 0 1000000000 0 0 99
14 0 0 1000000000 0 0 84
15 0 0 1000000000 0 0 74
16 0 0 1000000000 0 0 89
17 0 0 1000000000 0 0 76
18 0 0 1000000000 0 0 68
19 0 0 1000000000 0 0 87
20 0 0 1000000000 0 0 69
21 0 0 1000000000 0 97 0
22 0 0 1000000000 0 0 87
23 0 0 1000000000 0 0 59
24 0 0 1000000000 0 0 82
25 0 0 1000000000 0 0 75
26 0 0 1000000000 0 0 55
27 0 0 1000000000 0 0 95
28 0 0 1000000000 0 0 63
29 0 0 1000000000 0 0 87
30 0 0 1000000000 0 0 72
31 0 0 1000000000 0 53 0
32 0 0 1000000000 0 0 66
33 0 0 1000000000 0 0 95
34 0 0 1000000000 0 0 58
35 0 0 1000000000 0 0 76
36 0 0 1000000000 0 0 66
37 0 0 1000000000 0 0 53
38 0 0 1000000000 0 0 67
39 0 0 1000000000 0 0 56
40 0 0 1000000000 0 0 71
41 0 0 1000000000 0 67 0
42 0 0 1000000000 0 0 52
43 0 0 1000000000 0 0 85
44 0 0 1000000000 0 0 99
45 0 0 1000000000 0 0 62
46 0 0 1000000000 0 0 51
47 0 0 1000000000 0 0 53
48 0 0 1000000000 0 0 63
49 0 0 1000000000 0 0 71
50 0 0 1000000000 0 0 78
51 0 0 1000000000 0 71 0
52 0 0 1000000000 0 0 77
53 0 0 1000000000 0 0 85
54 0 0 1000000000 0 0 82
55 0 0 1000000000 0 0 94
56 0 0 1000000000 0 0 67
57 0 0 1000000000 0 0 54
58 0 0 1000000000 0 0 66
59 0 0 1000000000 0 0 64
60 0 0 1000000000 0 0 94
61 0 0 1000000000 0 75 0
62 0 0 1000000000 0 0 72
63 0 0 1000000000 0 0 66
64 0 0 1000000000 0 0 95
65 0 0 1000000000 0 0 59
66 0 0 1000000000 0 0 68
67 0 0 1000000000 0 0 94
68 0 0 1000000000 0 0 84
69 0 0 1000000000 0 0 94
70 0 0 1000000000 0 0 62
71 0 0 1000000000 0 73 0
72 0 0 1000000000 0 0 66
73 0 0 1000000000 0 0 97
74 0 0 1000000000 0 0 71
75 0 0 1000000000 0 0 62
76 0 0 1000000000 0 0 60
77 0 0 1000000000 0 0 86
78 0 0 1000000000 0 0 99
79 0 0 1000000000 0 0 51
80 0 0 1000000000 0 0 90
81 0 0 1000000000 0 72 0
82 0 0 1000000000 0 0 84
83 0 0 1000000000 0 0 78
84 0 0 1000000000 0 0 81
85 0 0 1000000000 0 0 50
86 0 0 1000000000 0 0 55
87 0 0 1000000000 0 0 56
88 0 0 1000000000 0 0 80
89 0 0 1000000000 0 0 63
90 0 0 1000000000 0 0 52
91 0 0 1000000000 0 71 0
92 0 0 1000000000 0 0 75
93 0 0 1000000000 0 0 71
94 0 0 1000000000 0 0 59
95 0 0 1000000000 0 0 78
96 0 0 1000000000 0 0 89
97 0 0 1000000000 0 0 89
98 0 0 1000000000 0 0 93
99 0 0 1000000000 0 0 74
100 0 0 1000000000 0 0 73
101 0 0 1000000000 0 85 0
102 0 0 1000000000 0 0 68
103 0 0 1000000000 0 0 71
104 0 0 1000000000 0 0 78
105 0 0 1000000000 0 0 90
106 0 0 1000000000 0 0 60
107 0 0 1000000000 0 0 95
108 0 0 1000000000 0 0 75
109 0 0 1000000000 0 0 65
110 0 0 1000000000 0 0 92
111 0 0 1000000000 0 79 0
112 0 0 1000000000 0 0 95
113 0 0 1000000000 0 0 99
114 0 0 1000000000 0 0 75
115 0 0 1000000000 0 0 91
116 0 0 1000000000 0 0 80
117 0 0 1000000000 0 0 91
118 0 0 1000000000 0 0 71
119 0 0 1000000000 0 0 55
120 0 0 1000000000 0 0 97
121 0 0 1000000000 0 71 0
122 0 0 1000000000 0 0 53
123 0 0 1000000000 0 0 99
124 0 0 1000000000 0 0 60
125 0 0 1000000000 0 0 70
126 0 0 1000000000 0 0 99
127 0 0 1000000000 0 0 97
128 0 0 1000000000 0 0 75
129 0 0 1000000000 0 0 54
130 0 0 1000000000 0 0 73
131 0 0 1000000000 0 51 0
132 0 0 1000000000 0 0 84
133 0 0 1000000000 0 0 72
134 0 0 1000000000 0 0 97
135 0 0 1000000000 0 0 60
136 0 0 1000000000 0 0 82
137 0 0 1000000000 0 0 67
138 0 0 1000000000 0 0 57
139 0 0 1000000000 0 0 62
140 0 0 1000000000 0 0 93
141 0 0 1000000000 0 97 0
142 0 0 1000000000 0 0 94
143 0 0 1000000000 0 0 91
144 0 0 1000000000 0 0 56
145 0 0 1000000000 0 0 71
146 0 0 1000000000 0 0 92
147 0 0 1000000000 0 0 92
148 0 0 1000000000 0 0 78
149 0 0 1000000000 0 0 100
150 0 0 1000000000 0 0 93
151 0 0 1000000000 0 99 0
152 0 0 1000000000 0 0 95
153 0 0 1000000000 0 0 99
154 0 0 1000000000 0 0 57
155 0 0 1000000000 0 0 78
156 0 0 1000000000 0 0 100
157 0 0 1000000000 0 0 69
158 0 0 1000000000 0 0 53
159 0 0 1000000000 0 0 80
160 0 0 1000000000 0 0 80
161 0 0 1000000000 0 76 0
162 0 0 1000000000 0 0 99
163 0 0 1000000000 0 0 58
164 0 0 1000000000 0 0 68
165 0 0 1000000000 0 0 51
166 0 0 1000000000 0 0 64
167 0 0 1000000000 0 0 97
168 0 0 1000000000 0 0 55
169 0 0 1000000000 0 0 100
170 0 0 1000000000 0 0 52
171 0 0 1000000000 0 99 0
172 0 0 1000000000 0 0 66
173 0 0 1000000000 0 0 74
174 0 0 1000000000 0 0 68
175 0 0 1000000000 0 0 97
176 0 0 1000000000 0 0 100
177 0 0 1000000000 0 0 59
178 0 0 1000000000 0 0 72
179 0 0 1000000000 0 0 63
180 0 0 1000000000 0 0 74
181 0 0 1000000000 0 72 0
182 0 0 1000000000 0 0 85
183 0 0 1000000000 0 0 93
184 0 0 1000000000 0 0 100
185 0 0 1000000000 0 0 66
186 0 0 1000000000 0 0 53
187 0 0 1000000000 0 0 93
188 0 0 1000000000 0 0 95
189 0 0 1000000000 0 0 61
190 0 0 1000000000 0 0 89
191 0 0 1000000000 0 86 0
192 0 0 1000000000 0 0 80
193 0 0 1000000000 0 0 74
194 0 0 1000000000 0 0 56
195 0 0 1000000000 0 0 78
196 0 0 1000000000 0 0 78
197 0 0 1000000000 0 0 66
198 0 0 1000000000 0 0 85
199 0 0 1000000000 0 0 89
200 0 0 1000000000 0 0 74
201 0 0 1000000000 0 57 0
202 0 0 1000000000 0 0 84
203 0 0 1000000000 0 0 88
204 0 0 1000000000 0 0 97
205 0 0 1000000000 0 0 93
206 0 0 1000000000 0 0 80
207 0 0 1000000000 0 0 53
208 0 0 1000000000 0 0 51
209 0 0 1000000000 0 0 85
210 0 0 1000000000 0 0 55
211 0 0 1000000000 0 89 0
212 0 0 1000000000 0 0 72
213 0 0 1000000000 0 0 53
214 0 0 1000000000 0 0 60
215 0 0 1000000000 0 0 97
216 0 0 1000000000 0 0 89
217 0 0 1000000000 0 0 94
218 0 0 1000000000 0 0 81
219 0 0 1000000000 0 0 76
220 0 0 1000000000 0 0 98
221 0 0 1000000000 0 94 0
222 0 0 1000000000 0 0 68
223 0 0 1000000000 0 0 71
224 0 0 1000000000 0 0 52
225 0 0 1000000000 0 0 69
226 0 0 1000000000 0 0 87
227 0 0 1000000000 0 0 93
228 0 0 1000000000 0 0 64
229 0 0 1000000000 0 0 64
230 0 0 1000000000 0 0 71
231 0 0 1000000000 0 94 0
232 0 0 1000000000 0 0 66
233 0 0 1000000000 0 0 60
234 0 0 1000000000 0 0 92
235 0 0 1000000000 0 0 61
236 0 0 1000000000 0 0 86
237 0 0 1000000000 0 0 100
238 0 0 1000000000 0 0 93
239 0 0 1000000000 0 0 70
240 0 0 1000000000 0 0 88
241 0 0 1000000000 0 66 0
242 0 0 1000000000 0 0 81
243 0 0 1000000000 0 0 51
244 0 0 1000000000 0 0 73
245 0 0 1000000000 0 0 91
246 0 0 1000000000 0 0 86
247 0 0 1000000000 0 0 68
248 0 0 1000000000 0 0 89
249 0 0 1000000000 0 0 52
250 0 0 1000000000 0 0 79
251 0 0 1000000000 0 60 0
252 0 0 1000000000 0 0 60
253 0 0 1000000000 0 0 60
254 0 0 1000000000 0 0 55
255 0 0 1000000000 0 0 95
256 0 0 1000000000 0 0 73
257 0 0 1000000000 0 0 80
258 0 0 1000000000 0 0 79
259 0 0 1000000000 0 0 86
260 0 0 1000000000 0 0 79
261 0 0 1000000000 0 89 0
262 0 0 1000000000 0 0 88
263 0 0 1000000000 0 0 70
264 0 0 1000000000 0 0 56
265 0 0 1000000000 0 0 80
266 0 0 1000000000 0 0 64
267 0 0 1000000000 0 0 51
268 0 0 1000000000 0 0 85
269 0 0 1000000000 0 0 88
270 0 0 1000000000 0 0 70
